\* NoughtiesPlaylist *\
Maximize
OBJ: x0 + x1 + x10 + x11 + x12 + x13 + x14 + x15 + x16 + x17 + x18 + x19 + x2
 + x20 + x21 + x22 + x23 + x24 + x25 + x26 + x27 + x28 + x29 + x3 + x30 + x31
 + x32 + x33 + x34 + x35 + x36 + x37 + x38 + x39 + x4 + x40 + x41 + x42 + x43
 + x44 + x45 + x46 + x47 + x48 + x49 + x5 + x50 + x51 + x52 + x53 + x54 + x55
 + x56 + x57 + x58 + x59 + x6 + x60 + x61 + x62 + x63 + x64 + x65 + x66 + x67
 + x68 + x69 + x7 + x70 + x71 + x72 + x73 + x74 + x75 + x76 + x77 + x78 + x79
 + x8 + x80 + x81 + x82 + x83 + x84 + x85 + x86 + x87 + x88 + x89 + x9 + x90
 + x91 + x92 + x93 + x94 + x95 + x96 + x97 + x98
Subject To
Danceability: 0.583 x0 + 0.821 x1 + 0.544 x10 + 0.571 x11 + 0.751 x12
 + 0.808 x13 + 0.486 x14 + 0.499 x15 + 0.699 x16 + 0.707 x17 + 0.755 x18
 + 0.664 x19 + 0.652 x2 + 0.706 x20 + 0.706 x21 + 0.774 x22 + 0.751 x23
 + 0.624 x24 + 0.706 x25 + 0.835 x26 + 0.508 x27 + 0.7 x28 + 0.695 x29
 + 0.778 x3 + 0.633 x30 + 0.776 x31 + 0.697 x32 + 0.64 x33 + 0.534 x34
 + 0.582 x35 + 0.851 x36 + 0.646 x37 + 0.635 x38 + 0.62 x39 + 0.895 x4
 + 0.584 x40 + 0.554 x41 + 0.835 x42 + 0.724 x43 + 0.81 x44 + 0.793 x45
 + 0.447 x46 + 0.706 x47 + 0.918 x48 + 0.813 x49 + 0.779 x5 + 0.675 x50
 + 0.466 x51 + 0.426 x52 + 0.768 x53 + 0.762 x54 + 0.487 x55 + 0.649 x56
 + 0.708 x57 + 0.604 x58 + 0.967 x59 + 0.618 x6 + 0.63 x60 + 0.875 x61
 + 0.491 x62 + 0.514 x63 + 0.873 x64 + 0.707 x65 + 0.801 x66 + 0.906 x67
 + 0.543 x68 + 0.845 x69 + 0.649 x7 + 0.727 x70 + 0.677 x71 + 0.756 x72
 + 0.583 x73 + 0.788 x74 + 0.632 x75 + 0.825 x76 + 0.452 x77 + 0.894 x78
 + 0.566 x79 + 0.743 x8 + 0.731 x80 + 0.791 x81 + 0.583 x82 + 0.57 x83
 + 0.735 x84 + 0.81 x85 + 0.962 x86 + 0.688 x87 + 0.512 x88 + 0.479 x89
 + 0.657 x9 + 0.796 x90 + 0.694 x91 + 0.753 x92 + 0.926 x93 + 0.563 x94
 + 0.63 x95 + 0.944 x96 + 0.656 x97 + 0.741 x98 >= 15
PartyLengthMax: 275987 x0 + 244440 x1 + 204587 x10 + 199640 x11 + 211160 x12
 + 242293 x13 + 242373 x14 + 219720 x15 + 179640 x16 + 238627 x17 + 199693 x18
 + 188960 x19 + 202067 x2 + 182307 x20 + 220227 x21 + 198800 x22 + 202613 x23
 + 193147 x24 + 259333 x25 + 267080 x26 + 261640 x27 + 202850 x28 + 294640 x29
 + 218093 x3 + 197124 x30 + 205360 x31 + 229413 x32 + 298853 x33 + 215160 x34
 + 244507 x35 + 237200 x36 + 236133 x37 + 262693 x38 + 230120 x39 + 250067 x4
 + 212400 x40 + 218333 x41 + 272533 x42 + 224400 x43 + 266840 x44 + 196160 x45
 + 227853 x46 + 223253 x47 + 231400 x48 + 195853 x49 + 246960 x5 + 216667 x50
 + 264373 x51 + 193213 x52 + 213293 x53 + 199027 x54 + 204000 x55 + 253813 x56
 + 268120 x57 + 202653 x58 + 242733 x59 + 235267 x6 + 249867 x60 + 272080 x61
 + 276920 x62 + 254027 x63 + 223520 x64 + 211413 x65 + 215480 x66 + 292373 x67
 + 241667 x68 + 187840 x69 + 230747 x7 + 284733 x70 + 238920 x71 + 246467 x72
 + 258827 x73 + 251240 x74 + 232693 x75 + 220627 x76 + 207187 x77 + 250373 x78
 + 237920 x79 + 289133 x8 + 179120 x80 + 192360 x81 + 220373 x82 + 213520 x83
 + 212280 x84 + 246573 x85 + 218093 x86 + 196227 x87 + 228347 x88 + 216480 x89
 + 212107 x9 + 258893 x90 + 208067 x91 + 189693 x92 + 199853 x93 + 222920 x94
 + 261427 x95 + 203787 x96 + 256733 x97 + 265973 x98 <= 7200000
PartyLengthMin: 275987 x0 + 244440 x1 + 204587 x10 + 199640 x11 + 211160 x12
 + 242293 x13 + 242373 x14 + 219720 x15 + 179640 x16 + 238627 x17 + 199693 x18
 + 188960 x19 + 202067 x2 + 182307 x20 + 220227 x21 + 198800 x22 + 202613 x23
 + 193147 x24 + 259333 x25 + 267080 x26 + 261640 x27 + 202850 x28 + 294640 x29
 + 218093 x3 + 197124 x30 + 205360 x31 + 229413 x32 + 298853 x33 + 215160 x34
 + 244507 x35 + 237200 x36 + 236133 x37 + 262693 x38 + 230120 x39 + 250067 x4
 + 212400 x40 + 218333 x41 + 272533 x42 + 224400 x43 + 266840 x44 + 196160 x45
 + 227853 x46 + 223253 x47 + 231400 x48 + 195853 x49 + 246960 x5 + 216667 x50
 + 264373 x51 + 193213 x52 + 213293 x53 + 199027 x54 + 204000 x55 + 253813 x56
 + 268120 x57 + 202653 x58 + 242733 x59 + 235267 x6 + 249867 x60 + 272080 x61
 + 276920 x62 + 254027 x63 + 223520 x64 + 211413 x65 + 215480 x66 + 292373 x67
 + 241667 x68 + 187840 x69 + 230747 x7 + 284733 x70 + 238920 x71 + 246467 x72
 + 258827 x73 + 251240 x74 + 232693 x75 + 220627 x76 + 207187 x77 + 250373 x78
 + 237920 x79 + 289133 x8 + 179120 x80 + 192360 x81 + 220373 x82 + 213520 x83
 + 212280 x84 + 246573 x85 + 218093 x86 + 196227 x87 + 228347 x88 + 216480 x89
 + 212107 x9 + 258893 x90 + 208067 x91 + 189693 x92 + 199853 x93 + 222920 x94
 + 261427 x95 + 203787 x96 + 256733 x97 + 265973 x98 >= 5400000
Tempo: 174.028 x0 + 118.984 x1 + 153.629 x10 + 172.716 x11 + 95.053 x12
 + 114.328 x13 + 138.015 x14 + 76.76 x15 + 129.996 x16 + 124.921 x17
 + 120.028 x18 + 131.006 x19 + 96.021 x2 + 91.031 x20 + 132.032 x21
 + 143.04 x22 + 119.975 x23 + 86.059 x24 + 100.011 x25 + 122.668 x26
 + 79.983 x27 + 122.031 x28 + 119.002 x29 + 100.024 x3 + 142.027 x30
 + 102.996 x31 + 82.082 x32 + 99.931 x33 + 126.019 x34 + 77.982 x35
 + 118.999 x36 + 99.165 x37 + 104.054 x38 + 144.926 x39 + 105.004 x4
 + 82.499 x40 + 157.995 x41 + 94.059 x42 + 139 x43 + 109.97 x44 + 107.661 x45
 + 175.868 x46 + 110.443 x47 + 128.008 x48 + 130.011 x49 + 99.019 x5
 + 97.03 x50 + 160.033 x51 + 193.437 x52 + 129.969 x53 + 110.009 x54
 + 149.937 x55 + 89.969 x56 + 113.082 x57 + 122.018 x58 + 117 x59 + 118.984 x6
 + 89.946 x60 + 120.002 x61 + 173.585 x62 + 161.109 x63 + 116.943 x64
 + 97.003 x65 + 110.01 x66 + 129.055 x67 + 117.923 x68 + 100 x69 + 126.03 x7
 + 117.932 x70 + 137.046 x71 + 119.961 x72 + 123.055 x73 + 113.324 x74
 + 119.397 x75 + 122.021 x76 + 92.791 x77 + 105.018 x78 + 94.991 x79
 + 127.96 x8 + 114.759 x80 + 114.98 x81 + 139.82 x82 + 162.084 x83
 + 132.964 x84 + 130.99 x85 + 126.016 x86 + 127.866 x87 + 180.114 x88
 + 92.959 x89 + 65.997 x9 + 132.722 x90 + 121.949 x91 + 113.029 x92
 + 110.007 x93 + 173.906 x94 + 94.023 x95 + 113.046 x96 + 94.514 x97
 + 109.905 x98 >= 900
Binaries
x0
x1
x10
x11
x12
x13
x14
x15
x16
x17
x18
x19
x2
x20
x21
x22
x23
x24
x25
x26
x27
x28
x29
x3
x30
x31
x32
x33
x34
x35
x36
x37
x38
x39
x4
x40
x41
x42
x43
x44
x45
x46
x47
x48
x49
x5
x50
x51
x52
x53
x54
x55
x56
x57
x58
x59
x6
x60
x61
x62
x63
x64
x65
x66
x67
x68
x69
x7
x70
x71
x72
x73
x74
x75
x76
x77
x78
x79
x8
x80
x81
x82
x83
x84
x85
x86
x87
x88
x89
x9
x90
x91
x92
x93
x94
x95
x96
x97
x98
End
